0 5076.01
1 5076.01
2 5059.55
3 5059.55
4 5042.69
5 5027.21
6 5012.59
7 5012.59
8 5008.85
9 5008.85
10 5008.85
11 5008.85
12 5008.85
13 5008.85
14 4986.78
15 4986.78
16 4966.36
17 4966.36
18 4896.51
19 4896.51
20 4896.51
21 4896.51
22 4896.51
23 4896.51
24 4896.51
25 4896.51
26 4896.51
27 4896.51
28 4896.51
29 4896.51
30 4896.51
31 4896.51
32 4896.51
33 4896.51
34 4896.51
35 4896.51
36 4896.51
37 4896.51
38 4896.51
39 4896.51
40 4896.51
41 4896.51
42 4896.51
43 4896.51
44 4896.51
45 4896.51
46 4896.51
47 4896.51
48 4896.51
49 4896.51
50 4896.51
51 4896.51
52 4896.51
53 4896.51
54 4896.51
55 4896.51
56 4896.51
57 4896.51
58 4896.51
59 4896.51
60 4896.51
61 4896.51
62 4896.51
63 4896.51
64 4896.51
65 4895.37
66 4895.37
67 4895.37
68 4895.37
69 4895.37
70 4895.37
71 4895.37
72 4895.37
73 4895.37
74 4895.37
75 4895.37
76 4895.37
77 4895.37
78 4846.81
79 4846.81
80 4846.81
81 4846.81
82 4846.81
83 4846.81
84 4846.81
85 4846.81
86 4846.81
87 4846.81
88 4846.81
89 4846.81
90 4846.81
91 4846.81
92 4846.81
93 4846.81
94 4846.81
95 4846.81
96 4846.81
97 4846.81
98 4846.81
99 4846.81
100 4846.81
101 4846.81
102 4846.81
103 4846.81
104 4846.81
105 4846.81
106 4846.81
107 4846.81
108 4846.81
109 4846.81
110 4846.81
111 4846.81
112 4846.81
113 4846.81
114 4846.81
115 4846.81
116 4846.81
117 4840.38
118 4840.38
119 4840.38
120 4840.38
121 4840.38
122 4840.38
123 4840.38
124 4840.38
125 4839.74
126 4839.74
127 4839.74
128 4839.74
129 4839.74
130 4839.74
131 4821.37
132 4821.37
133 4821.37
134 4821.37
135 4821.37
136 4821.37
137 4821.37
138 4821.37
139 4821.37
140 4821.37
141 4821.37
142 4821.37
143 4821.37
144 4821.37
145 4821.37
146 4821.37
147 4821.37
148 4821.37
149 4821.37
150 4821.37
151 4821.37
152 4821.37
153 4816.24
154 4816.24
155 4804.19
156 4804.19
157 4804.19
158 4804.19
159 4804.19
160 4804.19
161 4804.19
162 4804.19
163 4804.19
164 4804.19
165 4804.19
166 4804.19
167 4804.19
168 4804.19
169 4804.19
170 4804.19
171 4804.19
172 4804.19
173 4804.19
174 4804.19
175 4804.19
176 4804.19
177 4762.17
178 4762.17
179 4762.17
180 4762.17
181 4762.17
182 4762.17
183 4762.17
184 4762.17
185 4762.17
186 4762.17
187 4762.17
188 4762.17
189 4762.17
190 4762.17
191 4762.17
192 4762.17
193 4762.17
194 4762.17
195 4762.17
196 4762.17
197 4762.17
198 4762.17
199 4762.17
200 4762.17
201 4762.17
202 4762.17
203 4762.17
204 4762.17
205 4762.17
206 4762.17
207 4762.17
208 4762.17
209 4762.17
210 4762.17
211 4762.17
212 4762.17
213 4762.17
214 4762.17
215 4762.17
216 4762.17
217 4762.17
218 4762.17
219 4762.17
220 4762.17
221 4762.17
222 4762.17
223 4762.17
224 4762.17
225 4762.17
226 4762.17
227 4762.17
228 4762.17
229 4762.17
230 4762.17
231 4762.17
232 4762.17
233 4762.17
234 4762.17
235 4762.17
236 4762.17
237 4762.17
238 4762.17
239 4753.63
240 4753.63
241 4753.63
242 4753.63
243 4753.63
244 4753.63
245 4753.63
246 4753.63
247 4753.63
248 4753.63
249 4753.63
250 4753.63
251 4753.63
252 4753.63
253 4753.63
254 4753.63
255 4753.63
256 4753.63
257 4753.63
258 4753.63
259 4746.84
260 4746.21
261 4746.21
262 4746.21
263 4746.21
264 4746.21
265 4746.21
266 4746.21
267 4746.21
268 4746.21
269 4746.21
270 4746.21
271 4746.21
272 4746.21
273 4746.21
274 4746.21
275 4746.21
276 4746.21
277 4746.21
278 4746.21
279 4746.21
280 4746.21
281 4746.21
282 4746.21
283 4746.21
284 4746.21
285 4746.21
286 4746.21
287 4746.21
288 4746.21
289 4746.21
290 4746.21
291 4746.21
292 4746.21
293 4746.21
294 4746.21
295 4746.21
296 4746.21
297 4746.21
298 4746.21
299 4746.21
300 4746.21
301 4746.21
302 4746.21
303 4746.21
304 4746.21
305 4746.21
306 4746.21
307 4746.21
308 4746.21
309 4746.21
310 4746.21
311 4746.21
312 4746.21
313 4746.21
314 4746.21
315 4746.21
316 4746.21
317 4746.21
318 4746.21
319 4746.21
320 4746.21
321 4746.21
322 4746.21
323 4746.21
324 4746.21
325 4746.21
326 4746.21
327 4746.21
328 4746.21
329 4746.21
330 4746.21
331 4746.21
332 4746.21
333 4746.21
334 4746.21
335 4746.21
336 4746.21
337 4746.21
338 4746.21
339 4746.21
340 4746.21
341 4746.21
342 4746.21
343 4746.21
344 4746.21
345 4746.21
346 4746.21
347 4746.21
348 4746.21
349 4746.21
350 4746.21
351 4746.21
352 4746.21
353 4746.21
354 4746.21
355 4746.21
356 4746.21
357 4746.21
358 4746.21
359 4746.21
360 4746.21
361 4746.21
362 4746.21
363 4746.21
364 4746.21
365 4746.21
366 4746.21
367 4746.21
368 4746.21
369 4746.21
370 4746.21
371 4746.21
372 4746.21
373 4746.21
374 4746.21
375 4746.21
376 4746.21
377 4746.21
378 4746.21
379 4746.21
380 4746.21
381 4746.21
382 4746.21
383 4746.21
384 4746.21
385 4746.21
386 4746.21
387 4746.21
388 4746.21
389 4746.21
390 4746.21
391 4746.21
392 4746.21
393 4746.21
394 4746.21
395 4746.21
396 4746.21
397 4746.21
398 4746.21
399 4746.21
400 4746.21
401 4746.21
402 4746.21
403 4746.21
404 4746.21
405 4746.21
406 4746.21
407 4746.21
408 4746.21
409 4746.21
410 4746.21
411 4746.21
412 4741.49
413 4741.49
414 4741.49
415 4741.49
416 4741.49
417 4741.49
418 4741.49
419 4741.49
420 4741.49
421 4741.49
422 4741.49
423 4741.49
424 4741.49
425 4741.49
426 4741.49
427 4741.49
428 4741.49
429 4741.49
430 4741.49
431 4741.49
432 4741.49
433 4741.49
434 4741.49
435 4741.49
436 4741.49
437 4741.49
438 4741.49
439 4741.49
440 4741.49
441 4741.49
442 4741.49
443 4741.49
444 4741.49
445 4741.49
446 4741.49
447 4741.49
448 4741.49
449 4741.49
450 4741.49
451 4741.49
452 4741.49
453 4741.49
454 4741.49
455 4741.49
456 4741.49
457 4741.49
458 4741.49
459 4741.49
460 4741.49
461 4741.49
462 4741.49
463 4741.49
464 4741.49
465 4741.49
466 4741.49
467 4741.49
468 4741.49
469 4741.49
470 4741.49
471 4741.49
472 4741.49
473 4741.49
474 4741.49
475 4741.49
476 4741.49
477 4741.49
478 4741.49
479 4741.49
480 4741.49
481 4741.49
482 4741.49
483 4741.49
484 4741.49
485 4741.49
486 4739.42
487 4739.42
488 4739.42
489 4739.42
490 4739.42
491 4739.42
492 4739.42
493 4739.42
494 4739.42
495 4739.42
496 4739.42
497 4739.42
498 4739.42
499 4739.42
4 4 9 4 0 0 